p cnf 155 458
-36 37 0 
-16 15 0 
-47 46 0 
-112 113 121 0 
-119 -4 -3 0 
-125 124 141 0 
-102 103 119 0 
-135 136 152 0 
-117 85 86 0 
-70 71 118 0 
-128 127 144 0 
-114 113 0 
-28 27 0 
-59 58 0 
-118 -79 -78 0 
-116 -77 0 
-123 98 99 0 
-82 83 0 
-113 114 0 
-58 59 0 
-118 -46 -45 0 
-71 70 118 0 
-130 129 146 0 
-117 -101 -100 0 
-116 44 0 
30 116 0 
-60 61 0 
-95 94 0 
-133 134 150 0 
-155 -138 0 
-140 124 0 
-116 -100 0 
-136 135 152 0 
-94 95 0 
-153 136 137 0 
-127 128 0 
-103 104 120 0 
-147 -131 -130 0 
-118 86 87 0 
-5 6 121 0 
-51 146 0 
-107 106 0 
-72 73 0 
-68 67 122 0 
-17 18 0 
-83 82 0 
-118 -64 -63 0 
-74 75 122 0 
-106 107 0 
-119 3 4 0 
-14 15 122 0 
-117 -86 -85 0 
-85 86 117 0 
-122 97 98 0 
-117 70 0 
-4 5 120 0 
-122 -22 -21 0 
-32 33 119 0 
-47 48 120 0 
-152 92 0 
-87 88 0 
-98 99 123 0 
-119 102 103 0 
-41 40 121 0 
-155 115 0 
-33 32 119 0 
-91 90 0 
-122 -15 -14 0 
-36 35 0 
-86 87 118 0 
-127 126 143 0 
-123 -99 -98 0 
-45 44 0 
-10 11 0 
-76 75 0 
-6 7 122 0 
-44 45 0 
-75 76 0 
-97 98 122 0 
-19 18 119 0 
-151 84 0 
-124 125 141 0 
-146 51 0 
-138 137 154 0 
-108 109 117 0 
-22 23 0 
-54 53 120 0 
-88 87 0 
-2 1 0 
-150 -134 -133 0 
-133 132 149 0 
-100 101 117 0 
-120 -54 -53 0 
-147 57 0 
-96 97 121 0 
-147 -130 0 
-117 -93 0 
-78 79 118 0 
-134 133 150 0 
-122 -75 -74 0 
-125 126 0 
-120 12 13 0 
-109 110 118 0 
-118 -110 -109 0 
-118 101 102 0 
-69 68 0 
-40 39 120 0 
-14 13 0 
-55 54 121 0 
-131 132 0 
-107 154 0 
-66 67 121 0 
-120 4 5 0 
-68 69 0 
-145 -129 -128 0 
-13 14 0 
-116 1 0 
-50 51 123 0 
-70 117 0 
-154 137 138 0 
-128 129 0 
-92 152 0 
-122 -68 -67 0 
-49 48 121 0 
-120 111 112 0 
-120 -40 -39 0 
-46 47 0 
-120 -81 -80 0 
-26 25 0 
-118 -102 -101 0 
-23 142 0 
-62 148 0 
-25 26 0 
-120 -48 -47 0 
-126 127 0 
-136 137 0 
17 117 0 
-152 -135 0 
-153 -137 -136 0 
-69 149 0 
-121 96 97 0 
-121 -55 -54 0 
-148 62 0 
-155 -139 -138 0 
85 116 0 
-143 126 127 0 
-121 -82 -81 0 
-12 13 120 0 
-122 6 7 0 
-121 -49 -48 0 
-81 82 121 0 
-116 -9 0 
-10 9 0 
-148 -132 -131 0 
-67 66 121 0 
-118 -71 -70 0 
-74 73 0 
-105 104 0 
-71 72 119 0 
-1 116 0 
-73 74 0 
-104 105 0 
-84 83 0 
-43 145 0 
-149 -133 -132 0 
-8 140 0 
-80 81 120 0 
-137 138 154 0 
-119 64 65 0 
-121 -41 -40 0 
-126 127 143 0 
-136 137 153 0 
-150 133 134 0 
-155 138 139 0 
-60 59 121 0 
-96 95 0 
-135 134 151 0 
-114 115 123 0 
-3 2 0 
-119 71 72 0 
-34 33 0 
-141 -125 -124 0 
-118 63 64 0 
-30 31 117 0 
-43 42 0 
-103 102 119 0 
77 116 0 
-117 100 101 0 
-129 130 0 
-11 12 0 
9 116 0 
-42 43 0 
-52 53 119 0 
-118 70 71 0 
-48 47 120 0 
-151 -135 -134 0 
-120 65 66 0 
-117 108 109 0 
-53 54 120 0 
-126 125 142 0 
-121 -67 -66 0 
-121 -35 -34 0 
-27 26 0 
-122 -98 -97 0 
-120 39 40 0 
-149 132 133 0 
-137 136 153 0 
-52 118 0 
-127 128 144 0 
-12 11 0 
-65 66 120 0 
-86 85 117 0 
-34 35 121 0 
-90 91 0 
-35 36 0 
-118 38 0 
-121 -60 -59 0 
-129 130 146 0 
-119 18 19 0 
-97 96 121 0 
-146 -130 -129 0 
-120 47 48 0 
-64 65 119 0 
-119 52 53 0 
-29 143 0 
-153 99 0 
-118 24 0 
-142 23 0 
-123 61 62 0 
-7 6 122 0 
-122 -7 -6 0 
-20 19 0 
-118 109 110 0 
-120 -112 -111 0 
-123 -57 -56 0 
-63 64 118 0 
-88 89 120 0 
-109 108 117 0 
-28 29 0 
-94 93 0 
-39 38 0 
-121 5 6 0 
-148 131 132 0 
-150 76 0 
-87 86 118 0 
-22 21 122 0 
-146 129 130 0 
-54 55 121 0 
-6 5 121 0 
-143 -127 -126 0 
-152 135 136 0 
-8 7 0 
-50 49 122 0 
-120 -13 -12 0 
-145 43 0 
-21 20 121 0 
-95 96 0 
-62 61 123 0 
-142 -126 -125 0 
-121 -113 -112 0 
-106 105 0 
-110 109 118 0 
-153 -136 0 
-120 80 81 0 
-144 -127 0 
-154 -138 -137 0 
-122 67 68 0 
-79 80 119 0 
-120 53 54 0 
-152 -136 -135 0 
-56 57 123 0 
-135 136 0 
-29 28 0 
-99 98 123 0 
-83 84 0 
-117 -31 -30 0 
-32 31 0 
-67 68 122 0 
-122 74 75 0 
-125 126 142 0 
-119 32 33 0 
-112 111 120 0 
-116 -85 0 
-123 -51 -50 0 
-131 132 148 0 
-46 45 118 0 
-121 20 21 0 
-38 118 0 
-117 63 0 
-102 101 118 0 
-121 -21 -20 0 
-124 140 0 
-130 131 0 
-121 112 113 0 
-51 50 123 0 
-128 129 145 0 
-119 -53 -52 0 
-144 -128 -127 0 
-151 -134 0 
-9 10 0 
-37 144 0 
-121 -6 -5 0 
-132 131 148 0 
-133 134 0 
-116 -108 0 
-141 -124 0 
-120 -66 -65 0 
-45 46 118 0 
-118 -87 -86 0 
-131 130 147 0 
-101 100 117 0 
-150 -133 0 
-80 79 119 0 
-111 110 0 
-31 30 117 0 
-56 55 0 
-140 8 0 
-123 114 115 0 
-72 71 119 0 
-151 134 135 0 
-146 -129 0 
-121 34 35 0 
-89 88 120 0 
-123 56 57 0 
-76 150 0 
-81 80 120 0 
-53 52 119 0 
-147 130 131 0 
-2 3 0 
-33 34 0 
-123 -62 -61 0 
-130 131 147 0 
-148 -131 0 
-134 135 0 
-121 59 60 0 
-138 139 0 
-119 -80 -79 0 
-15 14 122 0 
-141 16 0 
-24 118 0 
-113 112 121 0 
-122 14 15 0 
-117 -109 -108 0 
-144 127 128 0 
-99 153 0 
-25 24 0 
-4 3 119 0 
-59 60 121 0 
-118 52 0 
-119 79 80 0 
-119 -72 -71 0 
-142 -125 0 
-118 45 46 0 
-20 21 121 0 
-122 21 22 0 
-139 138 155 0 
-41 42 0 
-48 49 121 0 
-13 12 120 0 
-118 78 79 0 
-57 147 0 
-61 60 0 
-26 27 0 
-92 91 0 
-104 103 120 0 
108 116 0 
-124 125 0 
-37 36 0 
-5 4 120 0 
-82 81 121 0 
-119 -65 -64 0 
-119 -33 -32 0 
-1 2 0 
-134 135 151 0 
-138 139 155 0 
-65 64 119 0 
-123 -115 -114 0 
-154 107 0 
-93 94 0 
-7 8 0 
-117 30 31 0 
-38 39 0 
-73 72 0 
-18 17 0 
-18 19 119 0 
-121 66 67 0 
-64 63 118 0 
-121 48 49 0 
-120 -104 -103 0 
-145 -128 0 
-154 -137 0 
-141 124 125 0 
-121 81 82 0 
-121 40 41 0 
-98 97 122 0 
-84 151 0 
-105 106 0 
-19 20 0 
-119 -58 0 
-115 155 0 
-115 114 123 0 
-49 50 122 0 
-129 128 145 0 
-63 117 0 
93 117 0 
-144 37 0 
-132 133 0 
-120 -5 -4 0 
-39 40 120 0 
-61 62 123 0 
-116 -30 0 
-149 -132 0 
100 116 0 
-3 4 119 0 
-120 88 89 0 
-31 32 0 
58 119 0 
-11 10 0 
-42 41 0 
-117 -17 0 
-44 116 0 
-120 -89 -88 0 
-40 41 121 0 
-79 78 118 0 
-75 74 122 0 
-143 29 0 
-78 77 0 
-23 22 0 
-149 69 0 
-122 -50 -49 0 
-77 78 0 
-21 22 122 0 
-143 -126 0 
-66 65 120 0 
-15 16 0 
-123 50 51 0 
-132 133 149 0 
-142 125 126 0 
-35 34 121 0 
-110 111 0 
-24 25 0 
-90 89 0 
-55 56 0 
-111 112 120 0 
-120 103 104 0 
-137 138 0 
-57 56 123 0 
-122 49 50 0 
-89 90 0 
-101 102 118 0 
-119 -103 -102 0 
-121 54 55 0 
-121 -97 -96 0 
-27 28 0 
-145 128 129 0 
-16 141 0 
-119 -19 -18 0 
-91 92 0 
